id: 1191
name: neos-941313
group: miplib2010
method: 1

Gurobi 7.0.2 (linux64, Matlab) logging started Fri Apr 20 03:27:17 2018


Gurobi 7.0.2 (linux64) logging started Fri Apr 20 03:27:17 2018

Optimize a model with 13189 rows, 167910 columns and 484080 nonzeros
Coefficient statistics:
  Matrix range     [1e+00, 1e+02]
  Objective range  [1e+01, 2e+02]
  Bounds range     [1e+00, 1e+00]
  RHS range        [1e+00, 3e+03]
Presolve removed 150 rows and 51300 columns
Presolve time: 0.10s
Presolved: 13039 rows, 116610 columns, 386280 nonzeros

Iteration    Objective       Primal Inf.    Dual Inf.      Time
       0   -6.6000000e+00   1.119801e+03   0.000000e+00      0s
   34108    9.1240003e+03   2.608354e+03   0.000000e+00      5s
   38529    9.2310003e+03   1.323750e+03   0.000000e+00     10s
   41538    9.2970003e+03   6.094204e+02   0.000000e+00     15s
   46136    9.3610003e+03   1.177627e+02   0.000000e+00     20s
   47612    9.3610000e+03   0.000000e+00   0.000000e+00     23s

Solved in 47612 iterations and 23.34 seconds
Optimal objective  9.361000000e+03
status: OPTIMAL
